p edge 50 245
e 1 5
e 1 22
e 1 30
e 1 32
e 1 42
e 1 43
e 1 45
e 1 49
e 2 8
e 2 11
e 2 13
e 2 15
e 2 20
e 2 23
e 2 25
e 2 31
e 2 40
e 2 41
e 2 47
e 3 9
e 3 16
e 3 21
e 3 26
e 3 29
e 3 41
e 3 42
e 3 50
e 4 14
e 4 16
e 4 20
e 4 34
e 4 36
e 4 39
e 5 6
e 5 7
e 5 9
e 5 17
e 5 24
e 5 33
e 5 36
e 5 39
e 5 42
e 5 47
e 5 50
e 6 9
e 6 10
e 6 14
e 6 21
e 6 24
e 6 26
e 6 31
e 6 34
e 6 36
e 6 45
e 7 8
e 7 13
e 7 17
e 7 19
e 7 25
e 7 39
e 7 40
e 7 42
e 7 43
e 7 47
e 7 48
e 7 49
e 8 9
e 8 10
e 8 13
e 8 16
e 8 17
e 8 30
e 8 31
e 8 34
e 8 43
e 8 46
e 8 48
e 9 10
e 9 18
e 9 19
e 9 24
e 9 29
e 9 43
e 10 18
e 10 20
e 10 23
e 10 24
e 10 30
e 10 32
e 10 37
e 10 42
e 11 25
e 11 28
e 11 31
e 11 38
e 11 44
e 11 45
e 11 47
e 11 48
e 12 16
e 12 18
e 12 28
e 12 47
e 13 23
e 13 29
e 13 32
e 13 41
e 14 16
e 14 20
e 14 24
e 14 29
e 14 30
e 14 36
e 14 42
e 14 44
e 14 46
e 14 49
e 15 23
e 15 34
e 15 37
e 15 48
e 16 20
e 16 40
e 16 41
e 16 43
e 16 46
e 17 25
e 17 30
e 17 33
e 17 39
e 17 43
e 18 29
e 18 35
e 18 40
e 18 41
e 18 44
e 18 48
e 19 26
e 19 29
e 19 31
e 19 32
e 19 35
e 19 43
e 19 46
e 19 49
e 19 50
e 20 26
e 20 27
e 20 30
e 20 38
e 20 39
e 20 47
e 20 48
e 20 50
e 21 23
e 21 26
e 21 29
e 21 31
e 21 33
e 21 36
e 21 39
e 21 46
e 21 47
e 22 29
e 22 30
e 22 40
e 22 42
e 22 46
e 22 47
e 22 49
e 23 26
e 23 32
e 23 38
e 23 39
e 24 25
e 24 26
e 24 27
e 24 30
e 24 34
e 24 35
e 24 37
e 24 40
e 24 47
e 24 50
e 25 26
e 25 36
e 25 38
e 25 39
e 25 40
e 25 41
e 25 44
e 26 29
e 26 31
e 26 40
e 26 42
e 26 47
e 26 48
e 26 49
e 27 35
e 27 36
e 27 38
e 27 43
e 28 38
e 28 47
e 28 49
e 28 50
e 29 36
e 29 37
e 29 43
e 29 47
e 30 32
e 30 34
e 30 35
e 30 39
e 30 46
e 30 48
e 31 45
e 31 48
e 32 42
e 32 46
e 32 49
e 33 35
e 33 37
e 33 40
e 33 49
e 34 36
e 34 37
e 34 38
e 34 40
e 34 45
e 34 50
e 35 41
e 35 42
e 35 46
e 35 50
e 36 37
e 36 42
e 37 38
e 37 44
e 38 43
e 39 47
e 41 44
e 42 45
e 43 50
e 47 48
